NAME : rnd93_20.tsp
TYPE : TSP
DIMENSION : 20
EDGE_WEIGHT_TYPE : EUC_2D
NODE_COORD_SECTION
0 492 56
1 840 541
2 617 869
3 357 909
4 373 435
5 597 124
6 174 784
7 970 124
8 24 333
9 27 188
10 323 852
11 939 451
12 113 545
13 662 544
14 994 312
15 865 873
16 807 386
17 306 75
18 477 992
19 873 882
